letting n =  10
letting blocks =  [[1, 1], [1, 2], [1, 7], [2, 1], [2, 2], [2, 3], [3, 3], [3, 6], [3, 8], [3, 10], [4, 1], [4, 9], [5, 6], [5, 10], [7, 3], [7, 5], [9, 2], [9, 8], [10, 5], [10, 10]]
